CMPL model generation - running

CMPL version: 1.11.0
Authors: Thomas Schleiff, Mike Steglich
Distributed under the GPLv3 

create model instance ...
write model instance ...
CMPL model generation - finished

Solver - running


Welcome to IBM(R) ILOG(R) CPLEX(R) Interactive Optimizer 12.7.1.0
  with Simplex, Mixed Integer & Barrier Optimizers
5725-A06 5725-A29 5724-Y48 5724-Y49 5724-Y54 5724-Y55 5655-Y21
Copyright IBM Corp. 1988, 2017.  All Rights Reserved.

Type 'help' for a list of available commands.
Type 'help' followed by a command name for more
information on commands.

CPLEX> Specified objective sense: MINIMIZE
Selected objective  name:  line[1]
Selected RHS        name:  RHS
Selected bound      name:  BOUND
Problem '/tmp/cmpl.T23552.mps' read.
Read time = 0.06 sec. (10.11 ticks)
CPLEX> CPXPARAM_Read_APIEncoding                        "UTF-8"
Tried aggregator 3 times.
MIP Presolve eliminated 24096 rows and 37755 columns.
MIP Presolve modified 425 coefficients.
Aggregator did 698 substitutions.
Reduced MIP has 3128 rows, 4002 columns, and 11866 nonzeros.
Reduced MIP has 3792 binaries, 0 generals, 0 SOSs, and 0 indicators.
Presolve time = 0.06 sec. (51.76 ticks)
Found incumbent of value 509.915120 after 0.12 sec. (89.22 ticks)
Probing fixed 9 vars, tightened 0 bounds.
Probing time = 0.01 sec. (5.06 ticks)
Tried aggregator 1 time.
MIP Presolve eliminated 0 rows and 9 columns.
MIP Presolve modified 40 coefficients.
Reduced MIP has 3128 rows, 3993 columns, and 11848 nonzeros.
Reduced MIP has 3993 binaries, 0 generals, 0 SOSs, and 0 indicators.
Presolve time = 0.01 sec. (10.02 ticks)
Probing time = 0.01 sec. (2.83 ticks)
Clique table members: 6837.
MIP emphasis: balance optimality and feasibility.
MIP search method: dynamic search.
Parallel mode: none, using 1 thread.
Root relaxation solution time = 0.01 sec. (5.43 ticks)

        Nodes                                         Cuts/
   Node  Left     Objective  IInf  Best Integer    Best Bound    ItCnt     Gap

*     0+    0                          509.9151      -22.2754           104.37%
      0     0       47.7432    12      509.9151       47.7432      102   90.64%
*     0+    0                           71.7013       47.7432            33.41%
*     0+    0                           48.0175       47.7432             0.57%
      0     0        cutoff             48.0175                    102    0.00%
Elapsed time = 0.18 sec. (131.61 ticks, tree = 0.01 MB, solutions = 3)

Root node processing (before b&c):
  Real time             =    0.18 sec. (133.44 ticks)
Sequential b&c:
  Real time             =    0.00 sec. (0.00 ticks)
                          ------------
Total (root+branch&cut) =    0.18 sec. (133.44 ticks)

Solution pool: 3 solutions saved.

MIP - Integer optimal solution:  Objective =  4.8017517000e+01
Solution time =    0.18 sec.  Iterations = 102  Nodes = 0
Deterministic time = 133.56 ticks  (737.29 ticks/sec)

CPLEX> Incumbent solution written to file '/tmp/cmpl.T23552.gsol'.
CPLEX> 
CMPL: Time used for model generation: 1 seconds
CMPL: Time used for solving the model: 1 seconds


Solution written to ASCII file: results/output_generated_conf_0.1/2017-07-03-5/fair-nonlinear.sol

Solver - finished
